language ESSENCE' 1.0
letting lastdx=98
letting cage be [
[27,3,6,3,7,0,0, 0,0, 0,0],
[32,1,3,2,3,3,3,4,3,0,0],
[30,8,6,7,6,6,6,5,6,0,0],
[6,3,5,0,0, 0,0, 0,0, 0,0],
[19,6,7,6,8,0,0, 0,0, 0,0],
[22,16,5,16,4,15,4,0,0, 0,0],
[5,5,5,0,0, 0,0, 0,0, 0,0],
[23,12,7,12,8,11,8,0,0, 0,0],
[10,12,16,0,0, 0,0, 0,0, 0,0],
[5,6,1,0,0, 0,0, 0,0, 0,0],
[34,14,11,13,11,13,10,0,0, 0,0],
[8,6,11,0,0, 0,0, 0,0, 0,0],
[21,13,9,12,9,12,10,0,0, 0,0],
[30,5,3,6,3,7,3,8,3,0,0],
[11,10,3,0,0, 0,0, 0,0, 0,0],
[12,4,4,3,4,0,0, 0,0, 0,0],
[6,15,14,16,14,0,0, 0,0, 0,0],
[22,16,12,15,12,0,0, 0,0, 0,0],
[14,5,11,0,0, 0,0, 0,0, 0,0],
[11,15,3,16,3,0,0, 0,0, 0,0],
[3,10,5,0,0, 0,0, 0,0, 0,0],
[12,5,12,0,0, 0,0, 0,0, 0,0],
[22,12,6,12,5,13,5,0,0, 0,0],
[15,1,2,0,0, 0,0, 0,0, 0,0],
[2,11,1,0,0, 0,0, 0,0, 0,0],
[17,3,11,3,12,4,12,4,11,0,0],
[9,8,14,0,0, 0,0, 0,0, 0,0],
[21,12,14,13,14,0,0, 0,0, 0,0],
[33,11,5,11,4,10,4,11,3,0,0],
[15,16,10,0,0, 0,0, 0,0, 0,0],
[27,16,2,16,1,15,1,0,0, 0,0],
[1,10,13,0,0, 0,0, 0,0, 0,0],
[28,13,2,14,2,15,2,14,1,0,0],
[23,1,7,1,6,1,5,0,0, 0,0],
[39,15,7,16,7,16,6,0,0, 0,0],
[12,14,7,0,0, 0,0, 0,0, 0,0],
[58,15,15,16,15,16,16,15,16,14,16],
[10,2,10,0,0, 0,0, 0,0, 0,0],
[28,4,7,4,6,4,5,0,0, 0,0],
[7,12,4,0,0, 0,0, 0,0, 0,0],
[42,9,2,9,3,8,2,8,1,7,1],
[25,2,4,1,4,0,0, 0,0, 0,0],
[11,1,10,0,0, 0,0, 0,0, 0,0],
[17,15,13,16,13,14,13,0,0, 0,0],
[7,2,13,0,0, 0,0, 0,0, 0,0],
[6,8,7,0,0, 0,0, 0,0, 0,0],
[41,14,8,13,8,13,7,13,6,14,6],
[28,2,12,2,11,0,0, 0,0, 0,0],
[9,4,15,4,16,0,0, 0,0, 0,0],
[34,6,14,6,15,6,16,5,16,0,0],
[41,13,15,13,16,14,15,14,14,0,0],
[32,10,16,11,16,11,15,12,15,0,0],
[29,6,5,7,5,6,4,5,4,0,0],
[20,6,2,7,2,0,0, 0,0, 0,0],
[11,1,14,1,13,0,0, 0,0, 0,0],
[30,13,13,12,13,11,13,11,12,0,0],
[47,9,1,10,1,10,2,11,2,12,2],
[38,4,1,4,2,5,2,5,1,0,0],
[29,13,4,14,4,14,3,0,0, 0,0],
[21,15,5,14,5,15,6,0,0, 0,0],
[9,6,10,0,0, 0,0, 0,0, 0,0],
[38,7,7,7,8,7,9,6,9,0,0],
[17,11,11,10,11,0,0, 0,0, 0,0],
[28,2,15,2,14,3,14,4,14,0,0],
[4,1,9,0,0, 0,0, 0,0, 0,0],
[9,1,12,1,11,0,0, 0,0, 0,0],
[5,9,9,0,0, 0,0, 0,0, 0,0],
[2,14,12,0,0, 0,0, 0,0, 0,0],
[8,3,10,0,0, 0,0, 0,0, 0,0],
[27,12,1,13,1,0,0, 0,0, 0,0],
[18,5,14,5,15,0,0, 0,0, 0,0],
[47,3,13,4,13,5,13,6,13,0,0],
[49,11,10,10,10,10,9,11,9,0,0],
[28,1,8,2,8,2,7,0,0, 0,0],
[9,9,16,0,0, 0,0, 0,0, 0,0],
[13,9,13,0,0, 0,0, 0,0, 0,0],
[20,9,10,9,11,9,12,10,12,0,0],
[11,9,6,0,0, 0,0, 0,0, 0,0],
[11,2,1,1,1,0,0, 0,0, 0,0],
[14,11,14,0,0, 0,0, 0,0, 0,0],
[28,1,15,1,16,0,0, 0,0, 0,0],
[24,2,2,3,2,3,1,0,0, 0,0],
[5,2,5,2,6,0,0, 0,0, 0,0],
[24,2,16,3,16,3,15,0,0, 0,0],
[13,4,10,0,0, 0,0, 0,0, 0,0],
[13,5,7,0,0, 0,0, 0,0, 0,0],
[22,5,8,5,9,5,10,0,0, 0,0],
[6,7,10,7,11,0,0, 0,0, 0,0],
[17,7,15,8,15,8,16,7,16,0,0],
[23,8,12,8,13,0,0, 0,0, 0,0],
[7,9,7,0,0, 0,0, 0,0, 0,0],
[28,9,14,10,14,0,0, 0,0, 0,0],
[7,9,15,10,15,0,0, 0,0, 0,0],
[6,10,6,0,0, 0,0, 0,0, 0,0],
[17,10,7,10,8,0,0, 0,0, 0,0],
[10,11,6,11,7,0,0, 0,0, 0,0],
[19,12,3,13,3,0,0, 0,0, 0,0],
[22,12,11,12,12,13,12,0,0, 0,0],
[35,14,9,14,10,15,10,15,11,16,11]
]
